(set-logic QF_S)
(set-option :produce-models true)

(declare-fun temp2_3960_3971 () String)
(declare-fun temp2_3960_3981 () String)
(declare-fun temp2_3960_3986 () String)
(declare-fun temp_3960_3986 () String)
(declare-fun temp1_3960_3971 () String)
(declare-fun temp1_3960_3981 () String)
(declare-fun s3971 () String)
(declare-fun s3986 () String)
(declare-fun s3981 () String)
(declare-fun s3976 () String)
(declare-fun temp1_3960_3986 () String)
(declare-fun temp1_3960_3976 () String)
(declare-fun temp2_3960_3976 () String)
(declare-fun s3960 () String)

(assert (not (= s3971 temp1_3960_3971) ) )
(assert (= (str.++ temp1_3960_3971 temp2_3960_3971) s3960) )
(assert (= (str.len temp1_3960_3981) (str.len s3981) ) )
(assert (not (= s3976 temp2_3960_3976) ) )
(assert (= (str.len temp2_3960_3986) (str.len s3986) ) )
(assert (= (str.++ temp1_3960_3981 temp2_3960_3981) s3960) )
(assert (= (str.++ temp_3960_3986 s3986) s3960) )
(assert (= (str.len temp2_3960_3976) (str.len s3976) ) )
(assert (not (= s3986 temp2_3960_3986) ) )
(assert (= (str.++ temp1_3960_3986 temp2_3960_3986) s3960) )
(assert (= (str.++ temp1_3960_3976 temp2_3960_3976) s3960) )
(assert (not (= s3981 temp1_3960_3981) ) )
(assert (= (str.len temp1_3960_3971) (str.len s3971) ) )


(check-sat)
(get-model)
